NAME: line_50_8
TYPE: TSP
COMMENT: line_50_8
DIMENSION: 50
EDGE_WEIGHT_TYPE: EUC_2D
NODE_COORD_SECTION
1 0.0 351.0
2 0.0 263.0
3 0.0 26.0
4 0.0 368.0
5 0.0 355.0
6 0.0 5.0
7 0.0 218.0
8 0.0 372.0
9 0.0 0.0
10 0.0 344.0
11 0.0 397.0
12 0.0 90.0
13 0.0 98.0
14 0.0 487.0
15 0.0 419.0
16 0.0 75.0
17 0.0 352.0
18 0.0 232.0
19 0.0 83.0
20 0.0 259.0
21 0.0 359.0
22 0.0 260.0
23 0.0 246.0
24 0.0 476.0
25 0.0 255.0
26 0.0 159.0
27 0.0 477.0
28 0.0 186.0
29 0.0 246.0
30 0.0 102.0
31 0.0 287.0
32 0.0 240.0
33 0.0 193.0
34 0.0 60.0
35 0.0 300.0
36 0.0 387.0
37 0.0 283.0
38 0.0 83.0
39 0.0 112.0
40 0.0 247.0
41 0.0 243.0
42 0.0 100.0
43 0.0 209.0
44 0.0 421.0
45 0.0 123.0
46 0.0 139.0
47 0.0 91.0
48 0.0 199.0
49 0.0 264.0
50 0.0 361.0
